data/solutions/recovery/degenerate/moderate/binding/degenerate_moderate_instance1/53.sol
Elapsed time: 0.23
Upper bound: 268445.0
Planning weighted value: 1667891.0
C[0]=268445.0
C[1]=230669.0
C[2]=212022.0
y[0]=1
y[1]=2
y[2]=1
y[3]=0
y[4]=2
y[5]=2
y[6]=2
y[7]=0
y[8]=0
y[9]=1
y[10]=2
y[11]=2
y[12]=2
y[13]=1
y[14]=0
y[15]=2
y[16]=0
y[17]=1
y[18]=0
y[19]=1
y[20]=0
y[21]=2
